(set-info :smt-lib-version 2.6)
(set-logic QF_UFLRA)
(set-info :source |
MathSat group

|)
(set-info :category "random")
(set-info :status sat)
(declare-fun f0_1 (Real) Real)
(declare-fun f0_2 (Real Real) Real)
(declare-fun f0_3 (Real Real Real) Real)
(declare-fun f0_4 (Real Real Real Real) Real)
(declare-fun f1_1 (Real) Real)
(declare-fun f1_2 (Real Real) Real)
(declare-fun f1_3 (Real Real Real) Real)
(declare-fun f1_4 (Real Real Real Real) Real)
(declare-fun x0 () Real)
(declare-fun x1 () Real)
(declare-fun x2 () Real)
(declare-fun x3 () Real)
(declare-fun x4 () Real)
(declare-fun x5 () Real)
(declare-fun x6 () Real)
(declare-fun x7 () Real)
(declare-fun x8 () Real)
(declare-fun x9 () Real)
(declare-fun x10 () Real)
(declare-fun x11 () Real)
(declare-fun x12 () Real)
(declare-fun x13 () Real)
(declare-fun x14 () Real)
(declare-fun x15 () Real)
(declare-fun x16 () Real)
(declare-fun x17 () Real)
(declare-fun x18 () Real)
(declare-fun x19 () Real)
(declare-fun x20 () Real)
(declare-fun x21 () Real)
(declare-fun x22 () Real)
(declare-fun x23 () Real)
(declare-fun x24 () Real)
(declare-fun x25 () Real)
(declare-fun x26 () Real)
(declare-fun x27 () Real)
(declare-fun x28 () Real)
(declare-fun x29 () Real)
(declare-fun P0 () Bool)
(declare-fun P1 () Bool)
(declare-fun P2 () Bool)
(declare-fun P3 () Bool)
(declare-fun P4 () Bool)
(declare-fun P5 () Bool)
(declare-fun P6 () Bool)
(declare-fun P7 () Bool)
(declare-fun P8 () Bool)
(declare-fun P9 () Bool)
(declare-fun P10 () Bool)
(declare-fun P11 () Bool)
(declare-fun P12 () Bool)
(declare-fun P13 () Bool)
(declare-fun P14 () Bool)
(declare-fun P15 () Bool)
(declare-fun P16 () Bool)
(declare-fun P17 () Bool)
(declare-fun P18 () Bool)
(declare-fun P19 () Bool)
(declare-fun P20 () Bool)
(declare-fun P21 () Bool)
(declare-fun P22 () Bool)
(declare-fun P23 () Bool)
(declare-fun P24 () Bool)
(declare-fun P25 () Bool)
(declare-fun P26 () Bool)
(declare-fun P27 () Bool)
(declare-fun P28 () Bool)
(declare-fun P29 () Bool)
(assert (let ((?v_28 (f0_2 x13 x11)) (?v_146 (* 5 x17)) (?v_54 (- (- (* 28 x5) (* 13 x22)) (* 10 x3))) (?v_151 (f0_1 x11)) (?v_43 (- (+ (* 12 x4) (* 16 x9)) (* 29 x23))) (?v_58 (f0_1 x18))) (let ((?v_224 (f0_2 ?v_28 x7)) (?v_123 (f1_1 x26)) (?v_24 (f1_1 x18)) (?v_7 (f1_2 x25 x29)) (?v_203 (* 22 x13)) (?v_70 (f0_2 x7 x25)) (?v_6 (f1_1 x20)) (?v_69 (+ (- (* 26 x29) (* 15 x1)) (* 20 x3))) (?v_168 (f1_1 x3)) (?v_52 (f0_2 x4 x3)) (?v_80 (f1_1 x22))) (let ((?v_13 (f0_2 ?v_7 x7)) (?v_177 (f0_2 x9 x6)) (?v_166 (* 3 x4)) (?v_10 (* 13 x8))) (let ((?v_12 (+ (- (* 6 x18) ?v_10) (* 26 x1))) (?v_274 (f0_1 ?v_168)) (?v_35 (- (- (* 7 x17) (* 10 x22)) (* 25 x27))) (?v_126 (f0_1 x15))) (let ((?v_21 (f0_2 ?v_12 x21)) (?v_148 (+ (- (* 14 x26) (* 11 x5)) (* 29 x2)))) (let ((?v_95 (- (- (* 3 ?v_21) (* 10 ?v_69)) (* 26 ?v_70))) (?v_206 (- (+ (* 6 x0) (* 22 x20)) (* 19 x12))) (?v_150 (f0_2 x5 ?v_69))) (let ((?v_79 (f1_2 ?v_35 ?v_95)) (?v_165 (f1_2 x20 x9)) (?v_38 (f0_2 x20 x23)) (?v_11 (f0_2 x11 x21)) (?v_19 (- (+ (* 16 x17) (* 29 x20)) (* 5 x7))) (?v_20 (f1_2 x28 x25)) (?v_273 (f0_1 x22)) (?v_164 (- (+ (* 14 x6) (* 22 x27)) (* 8 x22))) (?v_103 (- (- (* 15 x20) (* 24 x17)) (* 11 x28))) (?v_29 (- (- (* 11 x29) (* 14 x7)) ?v_10)) (?v_96 (f0_2 x7 x22)) (?v_3 (f1_1 x6)) (?v_210 (< x20 15)) (?v_302 (< x13 21))) (let ((?v_8 (< ?v_3 8)) (?v_104 (< (f0_2 x13 ?v_11) 9)) (?v_193 (< ?v_80 20)) (?v_45 (= x7 ?v_35)) (?v_60 (< ?v_6 16)) (?v_202 (< ?v_95 17)) (?v_217 (< x10 23)) (?v_78 (< ?v_43 21)) (?v_169 (< ?v_148 7)) (?v_158 (< ?v_126 13)) (?v_17 (< ?v_21 5)) (?v_208 (< x6 0)) (?v_228 (< ?v_70 23)) (?v_239 (< ?v_274 14)) (?v_297 (= ?v_164 ?v_165)) (?v_205 (< (f0_2 x7 x21) 8)) (?v_310 (= x16 x19)) (?v_285 (< (- (+ (* 6 x14) (* 9 x11)) (* 26 x4)) 15)) (?v_27 (< x6 7)) (?v_157 (< ?v_150 12)) (?v_286 (= x3 x12)) (?v_186 (= ?v_54 ?v_70)) (?v_200 (= ?v_150 x4)) (?v_56 (< ?v_28 14)) (?v_92 (= ?v_79 x9)) (?v_61 (< ?v_38 1)) (?v_289 (< ?v_13 28)) (?v_15 (< x22 16)) (?v_132 (< x5 28)) (?v_253 (= ?v_165 ?v_96)) (?v_84 (= ?v_29 ?v_11)) (?v_33 (< ?v_123 18)) (?v_238 (< x8 3)) (?v_139 (< ?v_54 26)) (?v_167 (< ?v_38 25)) (?v_76 (< ?v_20 21)) (?v_276 (< ?v_21 7)) (?v_68 (< ?v_58 25)) (?v_234 (< ?v_151 24)) (?v_265 (= ?v_3 (f1_1 x21))) (?v_89 (< ?v_224 22)) (?v_77 (< x27 22)) (?v_64 (= ?v_12 ?v_13)) (?v_98 (= ?v_43 ?v_273)) (?v_229 (= ?v_148 x3)) (?v_315 (< x17 18)) (?v_250 (not P9)) (?v_100 (not P20))) (let ((?v_191 (not ?v_15)) (?v_135 (not ?v_17)) (?v_102 (not (= (f1_2 x17 ?v_24) ?v_80))) (?v_53 (not ?v_8)) (?v_209 (not ?v_60)) (?v_112 (not ?v_104)) (?v_32 (not ?v_285)) (?v_71 (not P27)) (?v_26 (not ?v_61)) (?v_85 (not ?v_64)) (?v_110 (not ?v_253)) (?v_125 (not P3)) (?v_198 (not ?v_45)) (?v_36 (not ?v_186)) (?v_119 (not (< ?v_13 14))) (?v_147 (not P7)) (?v_230 (not (< (f0_2 x22 x26) 10))) (?v_160 (not P15)) (?v_86 (not P1)) (?v_292 (not ?v_56)) (?v_307 (not P13)) (?v_65 (not P11)) (?v_256 (not (< ?v_58 18))) (?v_140 (not P8)) (?v_105 (not P25)) (?v_130 (not ?v_92)) (?v_117 (not P24)) (?v_235 (not ?v_76)) (?v_218 (not P21)) (?v_83 (not ?v_77)) (?v_181 (not P26)) (?v_128 (not ?v_205)) (?v_221 (not P4)) (?v_243 (not ?v_132)) (?v_93 (not ?v_84)) (?v_318 (not P2)) (?v_317 (not ?v_202)) (?v_245 (not ?v_139)) (?v_187 (not (< ?v_96 11))) (?v_227 (not ?v_98)) (?v_154 (not P23)) (?v_156 (not ?v_167)) (?v_207 (not ?v_68)) (?v_214 (not ?v_157)) (?v_172 (not P17)) (?v_269 (not ?v_228)) (?v_320 (not (< (f0_1 x21) 20))) (?v_219 (not ?v_200)) (?v_183 (not ?v_158)) (?v_184 (not ?v_169)) (?v_179 (not (< ?v_177 9))) (?v_232 (not (< (f0_1 ?v_80) 18))) (?v_213 (not (< (f1_1 x7) 7))) (?v_231 (not P6)) (?v_252 (not (< ?v_206 0))) (?v_260 (not ?v_208)) (?v_270 (not ?v_210)) (?v_321 (not ?v_315)) (?v_312 (not ?v_234)) (?v_272 (not ?v_193)) (?v_316 (not ?v_229)) (?v_282 (not ?v_238)) (?v_287 (not ?v_239)) (?v_306 (not P22)) (?v_280 (not ?v_265)) (?v_299 (not ?v_276)) (?v_304 (not ?v_289)) (?v_48 (+ ?v_203 (* 20 x10) (* 17 x8))) (?v_37 (+ (* 26 x5) (* 14 x15) (* 18 ?v_168)))) (let ((?v_39 (< ?v_37 25))) (let ((?v_133 (not ?v_39)) (?v_82 (< ?v_48 6)) (?v_149 (< ?v_37 20)) (?v_225 (f0_2 ?v_48 ?v_151))) (let ((?v_251 (not (< ?v_225 1))) (?v_266 (not (< ?v_225 11))) (?v_23 (- (- (* (- 16) ?v_6) (* 6 ?v_13)) (* 15 x4)))) (let ((?v_40 (= x9 (- (+ (* (- 22) x25) (* 28 x29)) (* 10 ?v_23))))) (let ((?v_16 (not ?v_40)) (?v_4 (+ (- (* (- 13) x14) (* 3 x6)) (* 13 x19)))) (let ((?v_41 (< ?v_4 13)) (?v_118 (- (- (* (- 12) x26) (* 2 x22)) (* 25 x23)))) (let ((?v_134 (< ?v_118 (- 23))) (?v_1 (+ (- (* (- 24) x26) (* 23 x23)) (* 20 x14)))) (let ((?v_25 (- (+ (* 18 x16) (* 7 x24)) (* 5 ?v_1))) (?v_0 (- (- (* (- 5) x22) (* 24 x10)) (* 18 x4)))) (let ((?v_220 (- (- (* (- 11) ?v_19) (* 21 ?v_25)) (* 13 ?v_0)))) (let ((?v_9 (< ?v_220 19))) (let ((?v_47 (not ?v_9)) (?v_5 (< ?v_3 (- 23)))) (let ((?v_323 (not ?v_5)) (?v_2 (= ?v_0 (+ (- (* 26 ?v_69) (* 22 ?v_1)) (* 21 x9)))) (?v_22 (- (- (* (- 11) x14) (* 25 x1)) (* 12 x25)))) (let ((?v_44 (= (+ (* (- 14) x26) (* 6 x22) (* 10 x6)) ?v_22)) (?v_267 (not ?v_2)) (?v_14 (< (+ (* (- 17) x0) (* 11 x26) (* 2 x12)) 10)) (?v_241 (not (< (+ (- (* (- 14) x29) (* 15 x24)) (* 26 x17)) 28))) (?v_51 (+ (* (- 28) x13) (* 17 x12) (* 10 ?v_151)))) (let ((?v_116 (= ?v_51 x1)) (?v_67 (= ?v_103 ?v_4))) (let ((?v_294 (not ?v_67)) (?v_55 (< x28 (- 24))) (?v_88 (< ?v_126 (- 21))) (?v_258 (not (= (+ (- (* (- 24) ?v_48) (* 11 ?v_7)) (* 4 x11)) (f0_1 x8)))) (?v_180 (< (f1_1 x16) (- 13))) (?v_295 (< ?v_164 (- 8)))) (let ((?v_101 (not ?v_295)) (?v_31 (< (- (+ (* (- 14) x24) (* 17 x2)) ?v_146) (- 7))) (?v_212 (< x16 (- 13)))) (let ((?v_57 (not ?v_212)) (?v_18 (not ?v_14)) (?v_46 (+ (- (* (- 9) x3) (* 23 x11)) (* 7 x0)))) (let ((?v_97 (= ?v_46 ?v_37)) (?v_50 (< ?v_19 (- 11)))) (let ((?v_162 (not ?v_50)) (?v_49 (- (- (* (- 4) x25) (* 9 x5)) (* 11 x20)))) (let ((?v_113 (= ?v_49 (f1_1 ?v_20)))) (let ((?v_90 (not ?v_113)) (?v_236 (+ (- (* (- 10) x11) (* 24 x3)) (* 20 x4)))) (let ((?v_66 (= ?v_21 (f0_1 ?v_236))) (?v_59 (= ?v_22 ?v_23)) (?v_30 (- (+ (* (- 8) x0) (* 6 x7)) (* 26 x8)))) (let ((?v_87 (- (- (* 6 ?v_24) (* 9 x4)) (* 23 ?v_30)))) (let ((?v_263 (f1_2 ?v_87 ?v_25))) (let ((?v_136 (< ?v_263 27)) (?v_34 (* (- 9) x8))) (let ((?v_62 (< (- (+ ?v_34 (* 5 x13)) (* 16 x19)) (- 5))) (?v_115 (= ?v_29 ?v_30)) (?v_42 (< x2 (- 24)))) (let ((?v_204 (not ?v_42)) (?v_174 (< (f0_2 x5 x8) (- 8))) (?v_121 (+ (- (* (- 21) x27) (* 13 x17)) (* 8 x13)))) (let ((?v_161 (= ?v_121 ?v_206))) (let ((?v_107 (not ?v_161)) (?v_262 (< (- (+ (* (- 13) x0) (* 13 x1)) (* 16 x2)) (- 6)))) (let ((?v_175 (not ?v_262)) (?v_171 (+ ?v_34 (* 21 x22) (* 6 x26)))) (let ((?v_114 (< ?v_171 28))) (let ((?v_81 (not ?v_114)) (?v_111 (= ?v_35 (- (- (* (- 19) x7) ?v_166) (* 8 x2))))) (let ((?v_63 (not ?v_111)) (?v_192 (< (- (- (* (- 22) ?v_38) ?v_25) (* 15 x7)) (- 3)))) (let ((?v_237 (not ?v_192)) (?v_73 (- (+ (* (- 15) x18) (* 9 x15)) (* 26 x10)))) (let ((?v_293 (< ?v_73 (- 7)))) (let ((?v_216 (not ?v_293)) (?v_74 (not ?v_41)) (?v_75 (< ?v_177 (- 20)))) (let ((?v_91 (not ?v_75)) (?v_131 (not ?v_44)) (?v_72 (= ?v_52 ?v_46)) (?v_159 (< ?v_49 (- 2))) (?v_127 (< x4 (- 13))) (?v_153 (< ?v_51 (- 12))) (?v_120 (< (- (- (* (- 7) ?v_52) (* 9 ?v_58)) (* 22 x29)) (- 26)))) (let ((?v_138 (not ?v_120)) (?v_106 (< (f0_2 ?v_54 x3) (- 16))) (?v_129 (< ?v_24 (- 20))) (?v_188 (< x18 (- 19))) (?v_99 (< x3 (- 12))) (?v_145 (not ?v_62)) (?v_197 (< ?v_23 11))) (let ((?v_124 (not ?v_197)) (?v_109 (< x10 (- 2))) (?v_143 (< ?v_73 (- 27)))) (let ((?v_301 (not ?v_143)) (?v_247 (< ?v_79 (- 8)))) (let ((?v_108 (not ?v_247)) (?v_257 (< ?v_80 (- 25))) (?v_296 (< ?v_23 13))) (let ((?v_199 (not ?v_296))) (let ((?v_284 (or ?v_199 ?v_82)) (?v_254 (not (< x27 (- 16)))) (?v_309 (< ?v_0 21))) (let ((?v_122 (not ?v_309)) (?v_144 (< (f0_2 x0 x23) (- 26))) (?v_223 (+ (* (- 6) x11) (* 16 x29) (* 9 x2)))) (let ((?v_283 (not (< ?v_223 (- 8)))) (?v_271 (< ?v_87 6)) (?v_94 (not ?v_88)) (?v_163 (< ?v_103 (- 15))) (?v_222 (not ?v_97)) (?v_242 (< x22 (- 21)))) (let ((?v_152 (not ?v_242)) (?v_155 (not ?v_99)) (?v_141 (< x18 (- 17)))) (let ((?v_173 (not ?v_141)) (?v_142 (< ?v_51 7)) (?v_194 (< ?v_118 (- 27))) (?v_176 (< ?v_103 (- 8))) (?v_201 (not (< ?v_121 (- 5)))) (?v_319 (< ?v_123 (- 26))) (?v_264 (not ?v_127)) (?v_195 (not ?v_129)) (?v_259 (< (f0_2 x15 ?v_25) (- 23)))) (let ((?v_244 (not ?v_259)) (?v_268 (f0_2 ?v_58 ?v_49))) (let ((?v_313 (= ?v_268 ?v_20)) (?v_311 (< x27 (- 19)))) (let ((?v_137 (not ?v_311)) (?v_308 (< x27 (- 29))) (?v_215 (not ?v_142)) (?v_196 (< x20 (- 29))) (?v_211 (- (- (* (- 2) x20) (* 7 x11)) ?v_146))) (let ((?v_190 (= ?v_211 (f0_1 x25))) (?v_189 (< (+ (* (- 12) x27) (* 17 x3) (* 28 x11)) 2)) (?v_178 (< ?v_70 (- 20))) (?v_185 (not ?v_72)) (?v_170 (not (< (- (- ?v_166 (* 14 x8)) (* 20 x17)) (- 15)))) (?v_182 (< ?v_171 8)) (?v_288 (not ?v_174)) (?v_303 (< ?v_11 (- 2)))) (let ((?v_240 (not ?v_178)) (?v_249 (not ?v_189)) (?v_314 (< x16 (- 11))) (?v_233 (not ?v_176)) (?v_298 (< ?v_48 (- 27)))) (let ((?v_226 (not ?v_298)) (?v_290 (not ?v_196)) (?v_300 (not (= (- (- (* 19 x19) ?v_203) (* 4 x3)) (- (- (* (- 15) x8) (* 10 x28)) (* 6 x6))))) (?v_255 (< ?v_211 9))) (let ((?v_248 (not ?v_255)) (?v_246 (< (f1_2 x17 x6) (- 3)))) (let ((?v_275 (not ?v_246)) (?v_305 (not ?v_109)) (?v_261 (< ?v_220 2)) (?v_291 (= ?v_223 (+ (- (* (- 18) ?v_49) (* 2 ?v_25)) (* 24 ?v_224)))) (?v_281 (< ?v_236 0)) (?v_279 (not ?v_144)) (?v_277 (< ?v_263 22)) (?v_278 (< ?v_268 4))) (let ((?v_322 (not ?v_291))) (and (and (and (and (and (and (and (and (and (and (and (and (and (and (and (and (and (and (and (and (and (and (and (and (and (and (and (and (and (and (and (and (and (and (and (and (and (and (and (and (and (and (and (and (and (and (and (and (and (and (and (and (and (and (and (and (and (and (and (and (and (and (and (and (and (and (and (and (and (and (and (and (and (and (and (and (and (and (and (and (and (and (and (and (and (and (and (and (and (and (and (and (and (and (and (and (and (and (and (and (and (and (and (and (and (and (and (and (and (and (and (and (and (and (and (and (and (and (and (and (and (and (and (and (and (and (and (and (and (and (and (and (and (and (and (and (and (and (and (and (and (and (and (and (and (and (and (and (and (and (and (and (and (and (and (and (and (and (and (and (and (and (and (and (and (and (and (and (and (and (and (and (and (and (and (and (and (and (and (and (and (and (and (and (and (and (and (and (and (and (and (and (and (and (and (and (and (and (and (and (and (and (and (and (and (and (and (and (and (and (and (and (and (and (and (and (and (and (and (and (and (and (and (and (and (and (and (and (and (and (and (and (and (and (and (and (and (and (and (and (and (and (and (and (and (and (and (and (and (and (and (and (and (and (and (and (and (and (and (and (and (and (and (and (and (and (and (and (and (and (and (and (and (and (and (and (and (and (and (and (and (and (and (and (and (and (and (and (and (and (and (and (and (and (and (and (and (and (and (or (or ?v_16 ?v_250) ?v_41) (or (or ?v_100 ?v_134) ?v_191)) (or (or ?v_47 ?v_135) ?v_323)) (or (or ?v_2 ?v_102) ?v_44)) (or (or ?v_267 P7) ?v_14)) (or (or (not ?v_89) ?v_53) ?v_241)) (or (or (not ?v_116) ?v_294) ?v_55)) (or (or ?v_5 ?v_98) ?v_88)) (or (or ?v_209 ?v_112) ?v_32)) (or (or ?v_258 ?v_71) ?v_76)) (or (or ?v_27 ?v_180) (not ?v_33))) (or (or ?v_101 ?v_31) ?v_26)) (or (or ?v_8 P27) ?v_9)) (or (or ?v_57 P2) ?v_84)) (or (or ?v_85 ?v_110) ?v_18)) (or (or ?v_15 ?v_97) ?v_238)) (or (or ?v_125 ?v_16) P15)) (or (or ?v_17 ?v_18) ?v_198)) (or (or ?v_162 ?v_90) ?v_66)) (or (or ?v_59 P13) P23)) (or (or ?v_136 ?v_62) ?v_36)) (or (or ?v_26 ?v_27) ?v_56)) (or (or ?v_115 P10) P23)) (or (or ?v_31 P1) ?v_204)) (or (or ?v_32 ?v_33) ?v_174)) (or (or ?v_107 ?v_175) ?v_81)) (or (or ?v_63 ?v_36) ?v_39)) (or (or ?v_237 (not (< ?v_19 0))) ?v_133)) (or (or ?v_40 ?v_216) ?v_74)) (or (or ?v_14 ?v_42) ?v_78)) (or (or ?v_31 ?v_91) ?v_131)) (or (or ?v_45 ?v_72) ?v_47)) (or (or ?v_8 ?v_119) ?v_217)) (or (or (not P14) ?v_82) ?v_159)) (or (or ?v_50 ?v_147) ?v_127)) (or (or ?v_230 ?v_160) ?v_153)) (or (or ?v_138 P8) P29)) (or (or ?v_53 ?v_106) ?v_55)) (or (or ?v_86 ?v_292) ?v_57)) (or (or P2 P10) ?v_307)) (or (or ?v_65 ?v_310) ?v_68)) (or (or ?v_129 ?v_188) (not P5))) (or (or ?v_229 (not ?v_59)) ?v_256)) (or (or ?v_60 P14) ?v_210)) (or (or ?v_99 ?v_140) ?v_61)) (or (or ?v_105 P19) ?v_77)) (or (or ?v_145 ?v_63) ?v_64)) (or (or ?v_124 ?v_65) ?v_66)) (or (or ?v_67 ?v_109) ?v_68)) (or (or ?v_130 ?v_71) ?v_72)) (or (or ?v_301 ?v_117) ?v_74)) (or (or ?v_75 ?v_235) ?v_218)) (or (or ?v_83 ?v_78) ?v_108)) (or (or ?v_257 P3) ?v_181)) (or (or ?v_128 ?v_221) ?v_81)) (or ?v_284 ?v_254)) (or (or ?v_2 ?v_33) ?v_83)) (or (or ?v_243 P2) ?v_122)) (or (or ?v_84 ?v_85) ?v_208)) (or (or ?v_144 ?v_283) P21)) (or (or ?v_93 ?v_59) ?v_86)) (or (or ?v_63 ?v_271) ?v_94)) (or (or ?v_89 ?v_90) ?v_91)) (or (or ?v_74 ?v_92) ?v_72)) (or (or ?v_93 ?v_94) ?v_318)) (or (or ?v_317 P16) ?v_245)) (or (or ?v_89 ?v_187) ?v_97)) (or (or ?v_74 ?v_227) ?v_99)) (or (or ?v_100 ?v_101) ?v_102)) (or (or ?v_163 ?v_154) ?v_104)) (or (or ?v_105 (not ?v_106)) ?v_193)) (or (or ?v_107 ?v_222) ?v_156)) (or (or ?v_71 ?v_108) ?v_109)) (or (or ?v_110 ?v_111) ?v_152)) (or (or ?v_155 ?v_107) ?v_173)) (or (or ?v_112 ?v_113) ?v_33)) (or (or ?v_71 ?v_114) ?v_115)) (or (or ?v_142 ?v_60) ?v_116)) (or (or ?v_117 ?v_194) ?v_119)) (or (or ?v_176 ?v_120) ?v_201)) (or (or ?v_122 ?v_101) ?v_207)) (or (or ?v_214 ?v_92) ?v_319)) (or (or ?v_109 ?v_124) ?v_50)) (or (or ?v_55 ?v_18) ?v_125)) (or (or ?v_158 ?v_264) ?v_2)) (or (or ?v_172 P21) ?v_128)) (or (or ?v_149 ?v_195) ?v_26)) (or (or ?v_244 ?v_130) P21)) (or (or ?v_313 ?v_131) P17)) (or (or ?v_137 ?v_90) ?v_132)) (or (or ?v_269 ?v_127) ?v_133)) (or (or ?v_134 ?v_129) ?v_135)) (or (or ?v_136 P17) ?v_137)) (or (or ?v_138 ?v_139) ?v_113)) (or (or ?v_308 ?v_140) ?v_141)) (or (or ?v_40 ?v_132) ?v_215)) (or (or ?v_143 ?v_130) ?v_144)) (or (or ?v_112 ?v_131) ?v_196)) (or (or ?v_145 P4) ?v_127)) (or (or ?v_190 ?v_320) ?v_111)) (or (or ?v_106 ?v_116) ?v_147)) (or (or ?v_85 ?v_18) P1)) (or (or ?v_169 ?v_135) (not ?v_149))) (or (or ?v_129 ?v_219) P12)) (or (or ?v_78 ?v_251) ?v_15)) (or (or ?v_152 ?v_153) ?v_154)) (or (or ?v_155 ?v_156) P26)) (or (or ?v_189 ?v_157) ?v_149)) (or (or ?v_183 ?v_178) ?v_159)) (or (or ?v_185 ?v_160) ?v_78)) (or (or P28 (not ?v_159)) ?v_161)) (or (or ?v_162 ?v_67) ?v_102)) (or (or ?v_114 ?v_76) (not ?v_163))) (or (or (not P10) ?v_47) (not ?v_297))) (or (or ?v_149 ?v_158) P7)) (or (or ?v_170 ?v_167) ?v_142)) (or (or ?v_88 ?v_68) ?v_135)) (or (or ?v_239 ?v_184) ?v_120)) (or (or ?v_302 ?v_170) ?v_182)) (or (or ?v_172 ?v_159) ?v_153)) (or (or ?v_173 ?v_288) ?v_303)) (or (or ?v_175 ?v_89) ?v_53)) (or (or ?v_105 ?v_66) ?v_176)) (or (or ?v_110 ?v_179) ?v_240)) (or (or ?v_179 (not ?v_180)) ?v_42)) (or (or ?v_181 ?v_182) P0)) (or (or ?v_183 ?v_82) ?v_184)) (or (or ?v_81 ?v_185) ?v_142)) (or (or ?v_89 P17) ?v_133)) (or (or ?v_17 ?v_186) ?v_187)) (or (or ?v_163 ?v_98) ?v_188)) (or (or ?v_276 ?v_232) ?v_249)) (or (or ?v_98 ?v_42) ?v_107)) (or (or ?v_61 (not ?v_190)) ?v_141)) (or (or ?v_74 ?v_191) ?v_154)) (or (or ?v_129 ?v_36) ?v_192)) (or (or ?v_101 ?v_314) ?v_233)) (or (or ?v_265 ?v_286) ?v_42)) (or (or ?v_193 (not ?v_194)) P29)) (or (or ?v_226 ?v_195) ?v_290)) (or (or P29 ?v_191) ?v_170)) (or (or ?v_197 ?v_39) ?v_198)) (or (or ?v_213 ?v_31) ?v_199)) (or (or ?v_200 ?v_141) ?v_201)) (or (or ?v_187 ?v_202) ?v_145)) (or (or ?v_16 ?v_133) ?v_231)) (or (or ?v_119 ?v_201) ?v_127)) (or (or ?v_180 ?v_33) ?v_300)) (or (or ?v_143 ?v_173) ?v_204)) (or (or ?v_186 ?v_205) ?v_147)) (or (or P20 ?v_252) ?v_61)) (or (or ?v_207 ?v_260) ?v_209)) (or (or ?v_270 ?v_15) P29)) (or (or ?v_67 ?v_187) ?v_112)) (or (or ?v_321 ?v_98) ?v_199)) (or (or ?v_124 P26) ?v_114)) (or (or ?v_202 ?v_312) ?v_94)) (or (or ?v_133 ?v_248) ?v_275)) (or (or ?v_272 ?v_33) ?v_212)) (or (or ?v_32 ?v_213) ?v_31)) (or (or ?v_214 ?v_110) ?v_179)) (or (or P3 ?v_5) ?v_143)) (or (or ?v_215 ?v_102) ?v_213)) (or (or ?v_83 ?v_305) ?v_113)) (or (or ?v_138 ?v_216) ?v_197)) (or (or ?v_217 ?v_218) ?v_207)) (or (or ?v_219 P28) (not ?v_261))) (or (or ?v_289 ?v_140) ?v_221)) (or (or ?v_222 ?v_291) P17)) (or (or ?v_266 ?v_226) P16)) (or (or ?v_27 ?v_116) P5)) (or (or ?v_124 ?v_227) ?v_228)) (or (or ?v_213 ?v_141) ?v_45)) (or (or ?v_107 ?v_144) ?v_316)) (or (or P10 ?v_230) ?v_231)) (or (or ?v_232 ?v_233) ?v_234)) (or (or ?v_235 ?v_281) ?v_125)) (or (or ?v_237 ?v_231) ?v_282)) (or (or ?v_287 ?v_41) P15)) (or (or ?v_240 ?v_86) P12)) (or (or ?v_241 ?v_111) ?v_228)) (or (or ?v_242 ?v_233) ?v_84)) (or (or ?v_197 ?v_243) ?v_244)) (or (or ?v_39 ?v_245) ?v_130)) (or (or ?v_91 ?v_246) ?v_247)) (or (or ?v_59 ?v_134) P14)) (or (or ?v_248 ?v_152) ?v_215)) (or (or ?v_8 ?v_184) ?v_14)) (or (or ?v_89 ?v_249) P6)) (or (or ?v_250 ?v_74) ?v_67)) (or (or ?v_136 ?v_112) ?v_67)) (or (or ?v_63 ?v_89) ?v_251)) (or (or ?v_129 ?v_160) ?v_56)) (or (or ?v_252 ?v_18) ?v_279)) (or (or ?v_253 P15) ?v_218)) (or (or ?v_55 (not ?v_153)) ?v_107)) (or (or ?v_77 ?v_251) ?v_194)) (or (or ?v_128 P3) ?v_120)) (or (or ?v_85 ?v_65) ?v_41)) (or (or ?v_254 P3) ?v_5)) (or (or ?v_152 ?v_32) ?v_197)) (or (or ?v_194 ?v_86) ?v_112)) (or (or ?v_255 ?v_249) ?v_14)) (or (or ?v_208 ?v_128) ?v_256)) (or (or ?v_156 ?v_174) P10)) (or (or (not ?v_257) ?v_159) ?v_245)) (or (or ?v_198 ?v_248) (not ?v_188))) (or (or ?v_258 ?v_109) ?v_259)) (or (or ?v_256 ?v_191) ?v_42)) (or (or ?v_260 (not P19)) ?v_26)) (or (or ?v_131 ?v_261) ?v_306)) (or (or ?v_170 ?v_5) ?v_262)) (or (or ?v_130 ?v_277) ?v_239)) (or (or ?v_264 ?v_189) ?v_53)) (or (or P3 ?v_158) ?v_74)) (or (or ?v_280 ?v_72) ?v_266)) (or (or ?v_267 P27) ?v_229)) (or (or ?v_216 ?v_99) ?v_144)) (or (or ?v_170 ?v_222) (not ?v_278))) (or (or ?v_269 ?v_235) ?v_136)) (or (or ?v_209 ?v_270) (not ?v_271))) (or (or ?v_107 ?v_272) ?v_267)) (or (or ?v_138 (= ?v_273 ?v_274)) P23)) (or (or ?v_275 ?v_266) ?v_5)) (or (or ?v_231 ?v_39) (not ?v_134))) (or (or ?v_299 ?v_269) ?v_158)) (or (or (not ?v_277) ?v_173) ?v_62)) (or (or ?v_278 P18) ?v_279)) (or (or ?v_33 ?v_280) ?v_133)) (or (or ?v_83 ?v_281) P29)) (or (or ?v_282 ?v_27) ?v_237)) (or (or (not P28) ?v_248) P23)) (or (or ?v_83 ?v_219) ?v_283)) (or (or ?v_157 P16) ?v_160)) (or ?v_284 (not P0))) (or (or ?v_226 ?v_55) ?v_72)) (or (or ?v_285 ?v_286) ?v_189)) (or (or ?v_201 ?v_287) ?v_184)) (or (or ?v_190 ?v_112) ?v_209)) (or (or ?v_288 ?v_44) P25)) (or (or ?v_275 ?v_208) P25)) (or (or ?v_304 ?v_192) ?v_74)) (or (or ?v_290 P16) ?v_59)) (or (or ?v_322 ?v_45) ?v_292)) (or (or ?v_293 ?v_47) ?v_218)) (or (or P26 P26) ?v_294)) (or (or ?v_237 ?v_212) ?v_295)) (or (or P1 ?v_267) ?v_296)) (or (or ?v_297 ?v_298) ?v_200)) (or (or P25 ?v_182) ?v_170)) (or (or ?v_55 ?v_251) ?v_154)) (or (or ?v_299 ?v_300) ?v_201)) (or (or ?v_301 ?v_36) P12)) (or (or ?v_260 P12) ?v_207)) (or (or ?v_202 ?v_184) ?v_302)) (or (or ?v_134 ?v_243) ?v_122)) (or (or ?v_170 P9) ?v_108)) (or (or ?v_76 ?v_172) ?v_180)) (or (or ?v_190 ?v_303) ?v_279)) (or (or ?v_47 ?v_71) ?v_299)) (or (or ?v_244 ?v_304) ?v_107)) (or (or ?v_305 P28) P1)) (or (or ?v_169 ?v_143) ?v_245)) (or (or ?v_154 P25) (not ?v_82))) (or (or ?v_132 ?v_205) ?v_85)) (or (or ?v_298 ?v_63) ?v_94)) (or (or (not ?v_66) ?v_81) ?v_159)) (or (or P20 ?v_124) ?v_306)) (or (or P17 ?v_307) ?v_72)) (or (or (not ?v_308) ?v_81) ?v_76)) (or (or ?v_17 ?v_178) ?v_309)) (or (or ?v_88 ?v_185) ?v_245)) (or (or ?v_173 (not P16)) ?v_310)) (or (or ?v_222 ?v_207) ?v_311)) (or (or ?v_306 ?v_143) ?v_299)) (or (or ?v_304 ?v_124) ?v_102)) (or (or P27 ?v_145) ?v_264)) (or (or ?v_89 ?v_178) ?v_42)) (or (or ?v_312 ?v_60) ?v_40)) (or (or ?v_174 (not ?v_182)) ?v_152)) (or (or P8 ?v_266) ?v_40)) (or (or ?v_187 ?v_186) ?v_115)) (or (or ?v_57 ?v_209) (not ?v_313))) (or (or ?v_50 ?v_26) ?v_217)) (or (or P26 ?v_32) P10)) (or (or ?v_134 ?v_276) ?v_32)) (or (or (not ?v_314) ?v_315) ?v_200)) (or (or ?v_231 ?v_170) ?v_300)) (or (or ?v_316 ?v_162) ?v_214)) (or (or ?v_317 (not ?v_217)) ?v_318)) (or (or (not ?v_319) (not ?v_286)) ?v_158)) (or (or P5 ?v_285) ?v_320)) (or (or ?v_212 ?v_290) ?v_170)) (or (or ?v_264 ?v_241) ?v_147)) (or (or ?v_214 ?v_147) ?v_321)) (or (or ?v_228 ?v_174) ?v_128)) (or (or ?v_190 ?v_315) ?v_149)) (or (or ?v_204 ?v_322) ?v_162)) (or (or (not ?v_27) ?v_267) ?v_323)) (or (or P6 ?v_74) ?v_232))))))))))))))))))))))))))))))))))))))))))))))))))))))))))))))))))))
(check-sat)
(exit)
